c nIsolatedPIs 0
c maxPI 32
p cnf 142 331
c gate 33 -7 -23 0
-7 -33 0
-23 -33 0
7 23 33 0
c gate 34 -2 -18 0
-2 -34 0
-18 -34 0
2 18 34 0
c gate 35 1 17 0
1 -35 0
17 -35 0
-1 -17 35 0
c gate 36 -34 35 0
-34 -36 0
35 -36 0
34 -35 36 0
c gate 37 3 19 0
3 -37 0
19 -37 0
-3 -19 37 0
c gate 38 2 18 0
2 -38 0
18 -38 0
-2 -18 38 0
c gate 39 -37 -38 0
-37 -39 0
-38 -39 0
37 38 39 0
c gate 40 -36 39 0
-36 -40 0
39 -40 0
36 -39 40 0
c gate 41 -4 -20 0
-4 -41 0
-20 -41 0
4 20 41 0
c gate 42 -3 -19 0
-3 -42 0
-19 -42 0
3 19 42 0
c gate 43 -41 -42 0
-41 -43 0
-42 -43 0
41 42 43 0
c gate 44 -40 43 0
-40 -44 0
43 -44 0
40 -43 44 0
c gate 45 5 21 0
5 -45 0
21 -45 0
-5 -21 45 0
c gate 46 4 20 0
4 -46 0
20 -46 0
-4 -20 46 0
c gate 47 -45 -46 0
-45 -47 0
-46 -47 0
45 46 47 0
c gate 48 -44 47 0
-44 -48 0
47 -48 0
44 -47 48 0
c gate 49 -6 -22 0
-6 -49 0
-22 -49 0
6 22 49 0
c gate 50 -5 -21 0
-5 -50 0
-21 -50 0
5 21 50 0
c gate 51 -49 -50 0
-49 -51 0
-50 -51 0
49 50 51 0
c gate 52 -48 51 0
-48 -52 0
51 -52 0
48 -51 52 0
c gate 53 7 23 0
7 -53 0
23 -53 0
-7 -23 53 0
c gate 54 6 22 0
6 -54 0
22 -54 0
-6 -22 54 0
c gate 55 -53 -54 0
-53 -55 0
-54 -55 0
53 54 55 0
c gate 56 -52 55 0
-52 -56 0
55 -56 0
52 -55 56 0
c gate 57 -33 56 0
-33 -57 0
56 -57 0
33 -56 57 0
c gate 58 -2 18 0
-2 -58 0
18 -58 0
2 -18 58 0
c gate 59 2 -18 0
2 -59 0
-18 -59 0
-2 18 59 0
c gate 60 -1 17 0
-1 -60 0
17 -60 0
1 -17 60 0
c gate 61 -59 60 0
-59 -61 0
60 -61 0
59 -60 61 0
c gate 62 -58 -61 0
-58 -62 0
-61 -62 0
58 61 62 0
c gate 63 3 62 0
3 -63 0
62 -63 0
-3 -62 63 0
c gate 64 19 -63 0
19 -64 0
-63 -64 0
-19 63 64 0
c gate 65 -3 -62 0
-3 -65 0
-62 -65 0
3 62 65 0
c gate 66 -4 20 0
-4 -66 0
20 -66 0
4 -20 66 0
c gate 67 -65 -66 0
-65 -67 0
-66 -67 0
65 66 67 0
c gate 68 -64 67 0
-64 -68 0
67 -68 0
64 -67 68 0
c gate 69 5 -21 0
5 -69 0
-21 -69 0
-5 21 69 0
c gate 70 4 -20 0
4 -70 0
-20 -70 0
-4 20 70 0
c gate 71 -69 -70 0
-69 -71 0
-70 -71 0
69 70 71 0
c gate 72 -68 71 0
-68 -72 0
71 -72 0
68 -71 72 0
c gate 73 -6 22 0
-6 -73 0
22 -73 0
6 -22 73 0
c gate 74 -5 21 0
-5 -74 0
21 -74 0
5 -21 74 0
c gate 75 -73 -74 0
-73 -75 0
-74 -75 0
73 74 75 0
c gate 76 -72 75 0
-72 -76 0
75 -76 0
72 -75 76 0
c gate 77 6 -22 0
6 -77 0
-22 -77 0
-6 22 77 0
c gate 78 7 -23 0
7 -78 0
-23 -78 0
-7 23 78 0
c gate 79 -77 -78 0
-77 -79 0
-78 -79 0
77 78 79 0
c gate 80 -76 79 0
-76 -80 0
79 -80 0
76 -79 80 0
c gate 81 -7 23 0
-7 -81 0
23 -81 0
7 -23 81 0
c gate 82 -8 -24 0
-8 -82 0
-24 -82 0
8 24 82 0
c gate 83 8 24 0
8 -83 0
24 -83 0
-8 -24 83 0
c gate 84 -82 -83 0
-82 -84 0
-83 -84 0
82 83 84 0
c gate 85 -81 -84 0
-81 -85 0
-84 -85 0
81 84 85 0
c gate 86 -80 85 0
-80 -86 0
85 -86 0
80 -85 86 0
c gate 87 14 -30 0
14 -87 0
-30 -87 0
-14 30 87 0
c gate 88 -14 30 0
-14 -88 0
30 -88 0
14 -30 88 0
c gate 89 -87 -88 0
-87 -89 0
-88 -89 0
87 88 89 0
c gate 90 15 -31 0
15 -90 0
-31 -90 0
-15 31 90 0
c gate 91 -15 31 0
-15 -91 0
31 -91 0
15 -31 91 0
c gate 92 -90 -91 0
-90 -92 0
-91 -92 0
90 91 92 0
c gate 93 89 92 0
89 -93 0
92 -93 0
-89 -92 93 0
c gate 94 9 25 0
9 -94 0
25 -94 0
-9 -25 94 0
c gate 95 -9 -25 0
-9 -95 0
-25 -95 0
9 25 95 0
c gate 96 -94 -95 0
-94 -96 0
-95 -96 0
94 95 96 0
c gate 97 16 -32 0
16 -97 0
-32 -97 0
-16 32 97 0
c gate 98 -16 32 0
-16 -98 0
32 -98 0
16 -32 98 0
c gate 99 -97 -98 0
-97 -99 0
-98 -99 0
97 98 99 0
c gate 100 -96 99 0
-96 -100 0
99 -100 0
96 -99 100 0
c gate 101 93 100 0
93 -101 0
100 -101 0
-93 -100 101 0
c gate 102 13 -29 0
13 -102 0
-29 -102 0
-13 29 102 0
c gate 103 -13 29 0
-13 -103 0
29 -103 0
13 -29 103 0
c gate 104 -102 -103 0
-102 -104 0
-103 -104 0
102 103 104 0
c gate 105 -12 -28 0
-12 -105 0
-28 -105 0
12 28 105 0
c gate 106 12 28 0
12 -106 0
28 -106 0
-12 -28 106 0
c gate 107 -105 -106 0
-105 -107 0
-106 -107 0
105 106 107 0
c gate 108 104 -107 0
104 -108 0
-107 -108 0
-104 107 108 0
c gate 109 11 27 0
11 -109 0
27 -109 0
-11 -27 109 0
c gate 110 -11 -27 0
-11 -110 0
-27 -110 0
11 27 110 0
c gate 111 -109 -110 0
-109 -111 0
-110 -111 0
109 110 111 0
c gate 112 10 26 0
10 -112 0
26 -112 0
-10 -26 112 0
c gate 113 -10 -26 0
-10 -113 0
-26 -113 0
10 26 113 0
c gate 114 -112 -113 0
-112 -114 0
-113 -114 0
112 113 114 0
c gate 115 -111 -114 0
-111 -115 0
-114 -115 0
111 114 115 0
c gate 116 108 115 0
108 -116 0
115 -116 0
-108 -115 116 0
c gate 117 101 116 0
101 -117 0
116 -117 0
-101 -116 117 0
c gate 118 86 117 0
86 -118 0
117 -118 0
-86 -117 118 0
c gate 119 -33 -82 0
-33 -119 0
-82 -119 0
33 82 119 0
c gate 120 -83 -94 0
-83 -120 0
-94 -120 0
83 94 120 0
c gate 121 -119 120 0
-119 -121 0
120 -121 0
119 -120 121 0
c gate 122 -95 114 0
-95 -122 0
114 -122 0
95 -114 122 0
c gate 123 -121 122 0
-121 -123 0
122 -123 0
121 -122 123 0
c gate 124 -112 -123 0
-112 -124 0
-123 -124 0
112 123 124 0
c gate 125 120 123 0
120 -125 0
123 -125 0
-120 -123 125 0
c gate 126 56 125 0
56 -126 0
125 -126 0
-56 -125 126 0
c gate 127 -124 -126 0
-124 -127 0
-126 -127 0
124 126 127 0
c gate 128 -109 -127 0
-109 -128 0
-127 -128 0
109 127 128 0
c gate 129 107 -110 0
107 -129 0
-110 -129 0
-107 110 129 0
c gate 130 -128 129 0
-128 -130 0
129 -130 0
128 -129 130 0
c gate 131 -104 130 0
-104 -131 0
130 -131 0
104 -130 131 0
c gate 132 -89 -92 0
-89 -132 0
-92 -132 0
89 92 132 0
c gate 133 -99 132 0
-99 -133 0
132 -133 0
99 -132 133 0
c gate 134 131 -133 0
131 -134 0
-133 -134 0
-131 133 134 0
c gate 135 104 130 0
104 -135 0
130 -135 0
-104 -130 135 0
c gate 136 111 126 0
111 -136 0
126 -136 0
-111 -126 136 0
c gate 137 107 136 0
107 -137 0
136 -137 0
-107 -136 137 0
c gate 138 -135 -137 0
-135 -138 0
-137 -138 0
135 137 138 0
c gate 139 -86 138 0
-86 -139 0
138 -139 0
86 -138 139 0
c gate 140 -134 139 0
-134 -140 0
139 -140 0
134 -139 140 0
c gate 141 -118 -140 0
-118 -141 0
-140 -141 0
118 140 141 0
c gate 142 57 141 0
57 -142 0
141 -142 0
-57 -141 142 0
c PO
142 0
